fuel_planner/utils/lkh_tsp_solver/resource/single.tsp
NAME : single
TYPE : ATSP
DIMENSION : 5
EDGE_WEIGHT_TYPE : EXPLICIT
EDGE_WEIGHT_FORMAT : FULL_MATRIX
EDGE_WEIGHT_SECTION
0 50000 50000 50000 50000 
0 0 162 292 103 
0 162 0 129 266 
0 292 129 0 204 
0 103 266 204 0 
EOF