fuel_planner/utils/lkh_tsp_solver/resource/single.txt
NAME : single.743.tour
COMMENT : Length = 743
COMMENT : Found by LKH [Keld Helsgaun] Mon May  2 03:23:58 2022
TYPE : TOUR
DIMENSION : 5
TOUR_SECTION
1
2
4
3
5
-1
EOF
